(set-logic LIA)

(declare-const y Int)
(declare-const y! Int)
(declare-const x Int)
(declare-const x! Int)
(declare-const tmp Int)
(declare-const tmp! Int)
(declare-const lock Int)
(declare-const lock! Int)

(declare-const y_34 Int)
(declare-const y_26 Int)
(declare-const y_19 Int)
(declare-const x_33 Int)
(declare-const x_25 Int)
(declare-const x_23 Int)
(declare-const x_0 Int)
(declare-const lock_31 Int)
(declare-const lock_24 Int)
(declare-const lock_22 Int)
(declare-const lock_20 Int)

(define-fun inv-f((lock Int)(tmp Int)(x Int)(y Int)) Bool
